This is Ipopt version 3.13.4, running with linear solver mumps.
NOTE: Other linear solvers might be more efficient (see Ipopt documentation).

Number of nonzeros in equality constraint Jacobian...:     1455
Number of nonzeros in inequality constraint Jacobian.:        0
Number of nonzeros in Lagrangian Hessian.............:        0

Total number of variables............................:       97
                     variables with only lower bounds:        0
                variables with lower and upper bounds:       91
                     variables with only upper bounds:        0
Total number of equality constraints.................:       15
Total number of inequality constraints...............:        0
        inequality constraints with only lower bounds:        0
   inequality constraints with lower and upper bounds:        0
        inequality constraints with only upper bounds:        0

iter    objective    inf_pr   inf_du lg(mu)  ||d||  lg(rg) alpha_du alpha_pr  ls
   0  2.4606211e+01 3.95e-09 9.72e-01   0.0 0.00e+00    -  0.00e+00 0.00e+00   0
   1  2.2846034e+01 1.67e-01 1.19e+01  -0.3 5.14e-01    -  9.93e-01 1.00e+00f  1
   2  2.0577420e+01 6.13e-01 6.97e+01  -1.0 7.55e-01    -  1.00e+00 1.00e+00f  1
   3  1.9046426e+01 9.07e-01 6.24e+02  -1.1 1.05e+00    -  9.99e-01 6.88e-01f  1
   4  1.8306417e+01 2.48e+00 6.37e+02  -1.6 6.96e-01    -  1.00e+00 1.00e+00h  1
   5  1.8570759e+01 2.02e+00 4.01e+02  -0.6 8.37e-01    -  1.00e+00 4.41e-01f  2
   6  1.8774387e+01 3.46e+00 3.16e+02  -0.7 1.83e+00    -  9.98e-01 1.00e+00h  1
   7  2.0437393e+01 1.46e+00 9.90e+02  -0.1 6.86e+00    -  1.00e+00 7.38e-01H  1
   8  1.9648936e+01 3.30e+00 7.31e+03  -0.2 6.56e-01    -  2.49e-01 1.00e+00f  1
   9  2.1513239e+01 8.33e-01 5.35e+02  -0.2 3.72e+00    -  2.31e-01 2.96e-01h  1
iter    objective    inf_pr   inf_du lg(mu)  ||d||  lg(rg) alpha_du alpha_pr  ls
  10  2.1452687e+01 8.27e-01 7.21e+02  -0.2 1.26e+00    -  1.00e+00 4.67e-01f  1
  11  2.1509160e+01 4.92e-01 1.10e+02  -0.2 4.77e-01    -  1.00e+00 1.00e+00f  1
  12  2.0310855e+01 1.13e-01 9.24e+01  -0.7 6.81e-01    -  1.00e+00 1.00e+00f  1
  13  1.8636083e+01 3.03e-01 3.72e+02  -1.1 4.84e+00    -  9.99e-01 2.85e-01f  1
  14  1.8231687e+01 2.74e-01 6.51e+01  -1.3 3.39e-01    -  1.00e+00 1.00e+00h  1
  15  1.8249370e+01 2.30e-01 3.82e+01  -1.0 5.96e-01    -  1.00e+00 3.19e-01H  1
  16  1.9605400e+01 5.18e-01 1.11e+03  -0.1 1.56e+00    -  9.16e-01 3.30e-01f  1
  17  2.0578128e+01 2.96e-01 9.53e+02  -0.2 3.51e-01    -  1.00e+00 1.00e+00f  1
  18  1.9969997e+01 5.31e-02 5.05e+02  -0.2 1.90e-01    -  1.00e+00 1.00e+00h  1
  19  1.9642633e+01 7.64e-01 7.66e+02  -0.8 3.17e-01    -  1.00e+00 1.00e+00h  1
iter    objective    inf_pr   inf_du lg(mu)  ||d||  lg(rg) alpha_du alpha_pr  ls
  20  1.9787694e+01 2.88e-01 5.39e+02  -0.9 4.81e-01    -  6.75e-01 9.23e-01h  1
  21  1.9898824e+01 2.11e-01 7.87e+00  -0.9 2.28e-01    -  1.00e+00 1.00e+00f  1
  22  1.9543433e+01 1.61e-01 3.30e+01  -1.5 1.83e-01    -  9.96e-01 7.78e-01h  1
  23  2.0265182e+01 9.96e-02 1.09e+02  -0.7 3.03e-01    -  1.00e+00 1.00e+00f  1
  24  1.9833917e+01 7.35e-02 1.08e+02  -0.8 1.71e-01    -  1.00e+00 1.00e+00h  1
  25  1.9552911e+01 1.16e-01 2.43e+02  -1.4 1.15e-01    -  1.00e+00 1.00e+00h  1
  26  2.0127643e+01 3.77e-02 7.90e+01  -0.8 3.97e-01    -  1.00e+00 6.06e-01H  1
  27  2.0160158e+01 7.66e-02 2.96e+02  -1.6 6.12e-02    -  1.00e+00 1.00e+00h  1
  28  2.0224575e+01 5.47e-02 2.11e+02  -2.0 1.26e-01    -  1.00e+00 2.59e-01h  1
  29  2.0314593e+01 2.15e-02 1.11e+02  -3.3 1.16e-01    -  8.95e-01 4.32e-01H  1
iter    objective    inf_pr   inf_du lg(mu)  ||d||  lg(rg) alpha_du alpha_pr  ls
  30  2.0430793e+01 1.65e-02 1.34e+02  -3.8 1.62e-01    -  1.00e+00 2.50e-01h  3
  31  2.0535008e+01 1.23e-02 1.85e+02  -1.8 6.62e-02    -  9.83e-01 5.00e-01h  2
  32  2.0632628e+01 6.59e-03 1.42e+02  -2.4 5.90e-02    -  1.00e+00 5.00e-01h  2
  33  2.0581185e+01 3.35e-02 4.17e+02  -3.4 1.72e-01    -  1.00e+00 8.83e-01h  1
  34  2.0473560e+01 2.07e-02 4.44e+02  -3.5 4.91e-02    -  1.00e+00 1.00e+00h  1
  35  2.0474121e+01 2.05e-02 4.33e+02  -3.5 1.88e-01    -  1.00e+00 8.72e-03h  1
  36  2.0495187e+01 2.17e-02 2.98e+02  -3.5 1.54e-01    -  1.00e+00 2.50e-01h  3
  37  2.0697552e+01 2.44e-03 7.71e+01  -3.5 8.28e-02    -  1.00e+00 1.00e+00H  1
  38  2.0703026e+01 1.67e-03 9.40e+01  -5.0 1.85e-02    -  1.00e+00 1.00e+00h  1
  39  2.0603807e+01 3.25e-02 5.69e+01  -6.2 1.20e-01    -  1.00e+00 1.00e+00f  1
iter    objective    inf_pr   inf_du lg(mu)  ||d||  lg(rg) alpha_du alpha_pr  ls
  40  2.0601875e+01 6.12e-03 1.77e+02  -6.3 2.54e-02    -  7.06e-01 1.00e+00h  1
  41  2.0603996e+01 5.24e-03 1.66e+02  -5.4 6.18e-02    -  1.00e+00 4.17e-02H  1
  42  2.0628369e+01 2.87e-03 3.64e+01  -3.8 2.72e-02    -  1.00e+00 1.00e+00h  1
  43  2.0633242e+01 8.83e-04 1.25e+01  -3.9 1.85e-02    -  1.00e+00 9.81e-01h  1
  44  2.0653079e+01 1.19e-04 4.95e+01  -5.4 7.07e-03    -  1.00e+00 1.00e+00h  1
  45  2.0653246e+01 4.88e-04 1.24e+01  -3.8 1.21e-02    -  1.00e+00 1.00e+00h  1
  46  2.0654410e+01 2.40e-05 9.76e+00  -3.9 9.89e-03    -  1.00e+00 1.00e+00H  1
  47  2.0653161e+01 5.66e-05 9.65e+00  -5.4 4.08e-03    -  1.00e+00 1.00e+00h  1
  48  2.0653791e+01 1.27e-05 6.74e-01  -4.5 1.34e-03    -  1.00e+00 1.00e+00h  1
  49  2.0649634e+01 2.62e-01 7.77e+01  -3.8 6.75e-01    -  1.00e+00 5.18e-01f  1
iter    objective    inf_pr   inf_du lg(mu)  ||d||  lg(rg) alpha_du alpha_pr  ls
  50  2.0478316e+01 2.36e-01 7.73e+01  -3.9 1.11e+00    -  8.72e-03 8.86e-02h  1
  51  2.0384075e+01 1.77e-01 5.36e+02  -3.9 1.73e+00    -  8.65e-05 3.12e-01f  1
  52  2.0273971e+01 1.56e-01 7.38e+01  -3.9 2.86e+00    -  2.39e-01 1.05e-01f  1
  53  2.0348249e+01 1.02e-01 1.16e+02  -3.9 2.89e-01    -  1.00e+00 3.51e-01h  1
  54  2.0333907e+01 9.83e-02 9.19e+01  -3.9 9.87e-01    -  6.10e-01 3.52e-02h  1
  55  2.0330666e+01 9.47e-02 9.34e+01  -3.9 5.50e+00    -  2.68e-01 3.64e-02f  1
